# LAMMPS Input File
# Licensed under CC BY 4.0
# See more in "A Set of Materials-Science Tutorials for the LAMMPS Simulation Package: 2. Materials Science"
# By Simon Gravelle, Mark A. Tschopp, Jacob R. Gissinger, and Axel Kohlmeyer

# 1) Initialization
variable pot  index tersoff        # comb | tersoff | vashishta
variable mode index bulk        # bulk | surface
units metal
dimension 3
atom_style charge
boundary p p p

# 2) System definition
variable qa equal 5.0820
variable qc equal 5.5277
variable eb equal -6.6979

# in bulk mode, start from the experimental cell instead and let it relax
variable qa equal 4.916
variable qc equal 5.4054
variable qb equal ${qa}*0.8660254
lattice custom 1.0 &
    a1 ${qa} 0.0 0.0  a2 $(-0.5*v_qa) $(v_qb) 0.0  a3 0.0 0.0 ${qc} &
    basis 0.469700 0.000000 0.000000 &
    basis 0.000000 0.469700 0.666667 &
    basis 0.530300 0.530300 0.333333 &
    basis 0.413500 0.266900 0.119100 &
    basis 0.266900 0.413500 0.547567 &
    basis 0.733100 0.146600 0.785767 &
    basis 0.586500 0.853400 0.214233 &
    basis 0.853400 0.586500 0.452433 &
    basis 0.146600 0.733100 0.880900 &
    origin 0.0 0.0 0.05
region box block 0 $(2*v_qa) 0 $(2*v_qb) 0 $(2*v_qc) units box
create_box 2 box
create_atoms 1 box basis 1 1 basis 2 1 basis 3 1 &
    basis 4 2 basis 5 2 basis 6 2 basis 7 2 basis 8 2 basis 9 2

replicate 2 2 2

mass 1 28.0855
mass 2 15.999

# 3) Settings
pair_style tersoff
pair_coeff * * SiO.tersoff Si O
neighbor 0.5 bin

# 4) Monitoring
group si type 1
group ox type 2
compute qsi si property/atom q
compute qavsi si reduce ave c_qsi
thermo 100
thermo_style custom step pe press lx lz c_qavsi
dump traj all atom 100 dump.lammpstrj

# 5) Run
timestep 0.001 # 1 fs
velocity all create 300.0 49284 mom yes rot yes dist gaussian
fix mynpt all npt temp 300 300 0.1 aniso 0 0 1.0 
run 5000
