# Simple NVE argon simulation

units           lj # Use Lennard-Jones reduced units
dimension       3 # Perform the simulation in 3 spatial dimensions
atom_style      atomic # Atoms are treated as point particles without bonds or molecular topology
boundary        p p p # Use periodic boundary conditions

lattice         fcc 1 origin 0.25 0.25 0.25 # Define a fcc lattice
region          simbox block -15 15 -15 15 -15 15 # Define the simulation box from -20 to 20 in x, y, and z
create_box      1 simbox # Create a simulation box containing one atom type

region          solid block -4 4 -4 4 -4 4 # Define a region
create_atoms    1 region solid # Create atoms on a lattice

region          vapor block -4 4 -4 4 -4 4 side out # Define a region
create_atoms    1 random 200 4134 vapor overlap 0.9 # Randomly create N atoms

lattice         none 1.0 # Overwrite previous lattice

mass            1    1.0 # Assign a mass to atom type 1 (mass = 1.0)
pair_style      lj/cut 4.0 # Use a Lennard-Jones pair potential with a cutoff distance of 4.0
pair_coeff      1    1    1.0 1.0 # Set Lennard-Jones parameters for atom type 1 (epsilon = 1.0 sigma = 1.0)

# minimize        1.0e-4 1.0e-6 100 1000 # reduce the initial energy of the system to present rise in temperature
# velocity        all create 0.02 4928459 rot yes mom yes dist gaussian

fix             mynve    all      nve # Integrate the equations of motion
timestep        0.005 # Set the integration timestep to 0.005 in LJ reduced time units
fix             myber    all      temp/berendsen 0.02 2.0 10 # Thermostat at temperature 1 with time constant 10

thermo          1000 # Print thermodynamic information in log
thermo_style    custom step temp etotal ke pe density # Choose what information is printed

# Uncomment to print atom coordinate to file
dump            mydmp    all      custom 5000 dump.lammpstrj id type x y z # Write atom coordinates to file

# Uncomment to generate images
dump            viz      all      image 5000 myimage-*.ppm type type size 1000 1000 zoom 1.5 shiny 0.5 fsaa yes view 0 0 box yes 0.005 axes no 0.0 0.0 center s 0.483725 0.510373 0.510373
dump_modify     viz pad 9 boxcolor white backcolor black adiam 1 1 acolor 1 cyan
run             500000
